Route #1: 1 21 31 19 13 7 26 12 1 
Route #2: 1 1 16 30 27 29 24 14 1 
Route #3: 1 17 2 3 23 11 8 22 10 18 6 1 
Route #4: 1 28 9 15 25 5 20 1 
Route #5: 1 4 1 

Cost 1095.44
Time 0.1435


 * Another infos *

 Iterations: 32 Time: 0.1435 sec - 0.0024 min - 0.0000 horas
0.0000 h 0.0024 min
Problem dimension: 32
